StudentsNr = 10;
InstructorsNr = 4;
DaysNr = 1;
SlotsPerDay = 15;
AvailabilitySlotsLenght = 3;
RoomNr = 2;
ProgrammNr = 1;
DegreeNr = 2;
RolesNr = 4;
CoursesNr = 10;
InstructorsProgramm = [{1}, {1}, {1}, {1}];
InstructorRolesPerProgramm = [|{1, 3, 4}, {}, {2, 4}, {2, 3, 4}|];
InstructorsAvailability = [|0, 1, 1, 1, 1, |0, 0, 1, 1, 1, |0, 0, 1, 1, 1, |0, 1, 1, 1, 1|];
StudentsProgramm = [1, 1, 1, 1, 1, 1, 1, 1, 1, 1];
StudentsDegree = [1, 2, 2, 2, 1, 2, 2, 2, 1, 1];
StudentsSupervisorId = [2, 4, 3, 1, 4, 1, 3, 4, 4, 3];
StudentsCourseIds = [{1, 2, 3, 4, 5, 6, 7, 8, 9, 10}, {5}, {6}, {8}, {1, 2, 3, 4, 5, 6, 7, 8, 9, 10}, {8}, {3}, {6}, {1, 2, 3, 4, 5, 6, 7, 8, 9, 10}, {1, 2, 3, 4, 5, 6, 7, 8, 9, 10}];
StudentsAvailability = [|0, 1, 0, 0, 0, |1, 1, 1, 1, 0, |0, 0, 1, 1, 0, |1, 1, 1, 1, 0, |1, 1, 1, 0, 1, |0, 0, 0, 1, 1, |0, 0, 1, 1, 0, |1, 1, 1, 1, 1, |1, 1, 0, 0, 1, |0, 0, 1, 1, 1|];
TheoryticalMinCard = [0, 0, 0, 0, 0, 0, 0, 0, 0, 0];
CoursesInstructorIds = [{2, 4}, {4}, {2, 3}, {4}, {2, 4}, {1, 2}, {4}, {1, 2, 3}, {1, 2}, {2, 3, 4}];
RolesDemands = [1, 1, 2, 3];
RolesContinuity = [4, 2, 1];
ExamLen = [1, 1, 1, 1, 1, 1, 1, 1, 1, 1];
LunchTsMinLen = 1;
LunchStarts = [5..8];
SupervisorAvailable = 5;
OptimalLunchLenght = [0, 1];
OptimalStartTs = [2, 0];
OptimalFinishTs = [0, 15];
MinimizeRooms = 200;
RolesSoftContinuity = [|1, 2, 3, 4|0, 0, 0, 2|];
SameDegreeInRoom = 0;
Mergeability = 1;
